NAME: matriztsp6
TYPE: TSP
COMMENT: 7 locations in Flyfood (pisiII)
DIMENSION: 7
EDGE_WEIGHT_TYPE: EUC_2D
NODE_COORD_SECTION
1 4.0 2.0
2 1.0 0.0
3 0.0 3.0
4 5.0 4.0
5 2.0 4.0
6 4.0 0.0
7 3.0 5.0
